\ENCODING=ISO-8859-1
\Problem name: nSARPLazy

Maximize
 obj1: 2.83046 u(0,3) + 3.21134 u(0,11) + 3.17638 u(0,13) + 2.07806 u(1,11)
       + 1.83886 u(1,13) + 6.14814 u(1,18) + 3.99656 u(3,8) + 5.50904 u(3,11)
       + 6.19904 u(3,13) + 4.65384 u(6,0) + 4.38428 u(6,11) + 3.67036 u(6,13)
       + 4.86284 u(8,1) + 4.20412 u(8,11) + 4.75428 u(8,13) - 0.46184 u(11,0)
       - 1.87772 u(11,1) - 2.06264 u(11,3) - 2.04424 u(11,6) - 3.0544 u(11,8)
       - 0.71944 u(11,13) - 1.04236 u(13,0) - 1.97892 u(13,1) - 2.49596 u(13,3)
       - 2.75816 u(13,6) - 2.50424 u(13,8) - 0.71944 u(13,11) - 2.116 u(16,6)
       - 3.97624 u(16,11) - 4.69016 u(16,13)
Subject To
 Constraint1_0#0:             u(0,3) + u(0,11) + u(0,13)  = 1
 Constraint1_1#1:             u(1,11) + u(1,13) + u(1,18)  = 1
 Constraint1_3#2:             u(3,8) + u(3,11) + u(3,13)  = 1
 Constraint1_6#3:             u(6,0) + u(6,11) + u(6,13)  = 1
 Constraint1_8#4:             u(8,1) + u(8,11) + u(8,13)  = 1
 Constraint1_11#5:            u(11,0) + u(11,1) + u(11,3) + u(11,6) + u(11,8)
                              + u(11,13) + u(11,18)  = 1
 Constraint1_13#6:            u(13,0) + u(13,1) + u(13,3) + u(13,6) + u(13,8)
                              + u(13,11) + u(13,18)  = 1
 Constraint1_16#7:            u(16,6) + u(16,11) + u(16,13)  = 1
 Constraint1_18#8:            u(1,18) + u(11,18) + u(13,18)  = 1
 Constraint4_m151646048_1#9:  u(0,3) + u(0,11) + u(0,13) - u(11,0) - u(13,0)
                              - x42  = 0
 Constraint4_m151646048_1#10: u(1,11) + u(1,13) + u(1,18) - u(11,1) - u(13,1)
                              - x43  = 0
 Constraint4_m151646048_1#11: u(3,8) + u(3,11) + u(3,13) - u(11,3) - u(13,3)
                              - x44  = 0
 Constraint4_m151646048_1#12: u(6,0) + u(6,11) + u(6,13) - u(11,6) - u(13,6)
                              - x45  = 0
 Constraint4_m151646048_1#13: u(8,1) + u(8,11) + u(8,13) - u(11,8) - u(13,8)
                              - x46  = 0
 Constraint4_m151646048_1#14: - u(0,11) - u(1,11) - u(3,11) - u(6,11) - u(8,11)
                              + u(11,0) + u(11,1) + u(11,3) + u(11,6) + u(11,8)
                              + u(11,13) + u(11,18) - u(13,11) - x47  = 0
 Constraint4_m151646048_1#15: - u(0,13) - u(1,13) - u(3,13) - u(6,13) - u(8,13)
                              - u(11,13) + u(13,0) + u(13,1) + u(13,3)
                              + u(13,6) + u(13,8) + u(13,11) + u(13,18) - x48
                               = 0
 Constraint8_6#16:            b(6) - b(11) <= 0
 Constraint8_8#17:            b(8) - b(13) <= 0
 Constraint9_0_3#18:          38 u(0,3) + b(0) - b(3) <= 37.7070894308943
 Constraint9_0_11#19:         38 u(0,11) + b(0) - b(11) <= 37.7272845528455
 Constraint9_0_13#20:         38 u(0,13) + b(0) - b(13) <= 37.7254308943089
 Constraint9_1_11#21:         38 u(1,11) + b(1) - b(11) <= 37.4930894308943
 Constraint9_1_13#22:         38 u(1,13) + b(1) - b(13) <= 37.480406504065
 Constraint9_1_18#23:         38 u(1,18) + b(1) - b(18) <= 37.7088943089431
 Constraint9_3_8#24:          38 u(3,8) + b(3) - b(8) <= 37.5754796747967
 Constraint9_3_11#25:         38 u(3,11) + b(3) - b(11) <= 37.655674796748
 Constraint9_3_13#26:         38 u(3,13) + b(3) - b(13) <= 37.6922601626016
 Constraint9_6_0#27:          38 u(6,0) - b(0) + b(6) <= 37.8225691056911
 Constraint9_6_11#28:         38 u(6,11) + b(6) - b(11) <= 37.8082764227642
 Constraint9_6_13#29:         38 u(6,13) + b(6) - b(13) <= 37.7704227642276
 Constraint9_8_1#30:          38 u(8,1) - b(1) + b(8) <= 37.7896422764228
 Constraint9_8_11#31:         38 u(8,11) + b(8) - b(11) <= 37.7547154471545
 Constraint9_8_13#32:         38 u(8,13) + b(8) - b(13) <= 37.7838861788618
 Constraint9_11_0#33:         38 u(11,0) - b(0) + b(11) <= 37.8921788617886
 Constraint9_11_1#34:         38 u(11,1) - b(1) + b(11) <= 37.8171056910569
 Constraint9_11_3#35:         38 u(11,3) - b(3) + b(11) <= 37.8073008130081
 Constraint9_11_6#36:         38 u(11,6) - b(6) + b(11) <= 37.8082764227642
 Constraint9_11_8#37:         38 u(11,8) - b(8) + b(11) <= 37.7547154471545
 Constraint9_11_13#38:        38 u(11,13) + b(11) - b(13) <= 37.8785203252033
 Constraint9_11_18#39:        38 u(11,18) + b(11) - b(18) <= 37.9166666666667
 Constraint9_13_0#40:         38 u(13,0) - b(0) + b(13) <= 37.8613983739837
 Constraint9_13_1#41:         38 u(13,1) - b(1) + b(13) <= 37.8117398373984
 Constraint9_13_3#42:         38 u(13,3) - b(3) + b(13) <= 37.784325203252
 Constraint9_13_6#43:         38 u(13,6) - b(6) + b(13) <= 37.7704227642276
 Constraint9_13_8#44:         38 u(13,8) - b(8) + b(13) <= 37.7838861788618
 Constraint9_13_11#45:        38 u(13,11) - b(11) + b(13) <= 37.8785203252033
 Constraint9_13_18#46:        38 u(13,18) + b(13) - b(18) <= 37.9166666666667
 Constraint9_16_6#47:         38 u(16,6) - b(6) + b(16) <= 37.8878048780488
 Constraint9_16_11#48:        38 u(16,11) - b(11) + b(16) <= 37.7891707317073
 Constraint9_16_13#49:        38 u(16,13) - b(13) + b(16) <= 37.7513170731707
 Constraint10_0#50:           b(6) - b(16) >= 0.11219512195122
 Constraint10_1#51:           b(0) - b(6) >= 0.177430894308943
 Constraint10_2#52:           - b(0) + b(3) >= 0.292910569105691
 Constraint10_3#53:           - b(3) + b(8) >= 0.424520325203252
 Constraint10_4#54:           b(1) - b(8) >= 0.210357723577236
 Constraint10_5#55:           - b(1) + b(18) >= 0.291105691056911
 Constraint11_0#56:           b(0) <= 9.43333333333333
 Constraint12_0#57:           b(0) >= 9.43333333333333
 Constraint11_1#58:           b(1) <= 17.5
 Constraint12_1#59:           b(1) >= 17.5
 Constraint11_3#60:           b(3) <= 10.4833333333333
 Constraint12_3#61:           b(3) >= 10.4833333333333
 Constraint11_6#62:           b(6) <= 19
 Constraint12_6#63:           b(6) >= 9
 Constraint11_8#64:           b(8) <= 19
 Constraint12_8#65:           b(8) >= 9
 Constraint11_11#66:          b(11) <= 19
 Constraint12_11#67:          b(11) >= 9
 Constraint11_13#68:          b(13) <= 19
 Constraint12_13#69:          b(13) >= 9
 Constraint11_16#70:          b(16) <= 19
 Constraint12_16#71:          b(16) >= 9
 Constraint11_18#72:          b(18) <= 19
 Constraint12_18#73:          b(18) >= 9
 Constraint13_16#74:          - b(16) + b(18) <= 10
Bounds
 0 <= u(0,3) <= 1
 0 <= u(0,11) <= 1
 0 <= u(0,13) <= 1
 0 <= u(1,11) <= 1
 0 <= u(1,13) <= 1
 0 <= u(1,18) <= 1
 0 <= u(3,8) <= 1
 0 <= u(3,11) <= 1
 0 <= u(3,13) <= 1
 0 <= u(6,0) <= 1
 0 <= u(6,11) <= 1
 0 <= u(6,13) <= 1
 0 <= u(8,1) <= 1
 0 <= u(8,11) <= 1
 0 <= u(8,13) <= 1
 0 <= u(11,0) <= 1
 0 <= u(11,1) <= 1
 0 <= u(11,3) <= 1
 0 <= u(11,6) <= 1
 0 <= u(11,8) <= 1
 0 <= u(11,13) <= 1
 0 <= u(11,18) <= 1
 0 <= u(13,0) <= 1
 0 <= u(13,1) <= 1
 0 <= u(13,3) <= 1
 0 <= u(13,6) <= 1
 0 <= u(13,8) <= 1
 0 <= u(13,11) <= 1
 0 <= u(13,18) <= 1
 0 <= u(16,6) <= 1
 0 <= u(16,11) <= 1
 0 <= u(16,13) <= 1
 9 <= b(0) <= 19
 9 <= b(1) <= 19
 9 <= b(3) <= 19
 9 <= b(6) <= 19
 9 <= b(8) <= 19
 9 <= b(11) <= 19
 9 <= b(13) <= 19
 9 <= b(16) <= 19
 9 <= b(18) <= 19
 0 <= x42 <= 1
 0 <= x43 <= 1
 0 <= x44 <= 1
 0 <= x45 <= 1
 0 <= x46 <= 1
 0 <= x47 <= 1
 0 <= x48 <= 1
Binaries
 u(0,3)  u(0,11)  u(0,13)  u(1,11)  u(1,13)  u(1,18)  u(3,8)  u(3,11)  u(3,13) 
 u(6,0)  u(6,11)  u(6,13)  u(8,1)  u(8,11)  u(8,13)  u(11,0)  u(11,1)  u(11,3) 
 u(11,6)  u(11,8)  u(11,13)  u(11,18)  u(13,0)  u(13,1)  u(13,3)  u(13,6) 
 u(13,8)  u(13,11)  u(13,18)  u(16,6)  u(16,11)  u(16,13)  x42  x43  x44  x45 
 x46  x47  x48 
End
